networks/zoo_138_948/zoo_138_948.txt
Number of groups: 91
Flow 1: {1 31} 
Flow 2: {2 7} {7 76} 
Flow 7: {3 31} {31 27} {27 96} 
Flow 11: {4 31} 
Flow 16: {5 8} {8 43} {43 31} {31 23} {23 92} 
Flow 26: {6 11} {11 31} {31 100} 
Flow 48: {9 49} {49 24} {24 93} 
Flow 55: {10 23} 
Flow 57: {7 2} {2 71} 
Flow 63: {29 14} {14 13} {13 82} 
Flow 79: {13 42} {42 111} 
Flow 81: {43 44} {44 113} 
Flow 87: {42 61} {61 130} 
Flow 90: {67 69} {69 138} 
Flow 91: {12 35} {35 31} 
Flow 149: {15 31} 
Flow 151: {16 31} 
Flow 153: {17 31} {31 11} {11 6} {6 75} 
Flow 173: {31 45} {45 114} 
Flow 189: {18 24} {24 23} {23 31} {31 40} {40 109} 
Flow 229: {20 19} {19 23} {23 10} {10 79} 
Flow 255: {21 26} {26 31} 
Flow 258: {22 19} {19 20} {20 17} {17 86} 
Flow 271: {49 9} {9 78} 
Flow 277: {26 21} {21 90} 
Flow 280: {31 25} {25 94} 
Flow 293: {31 41} {41 110} 
Flow 300: {31 50} {50 119} 
Flow 301: {49 55} {55 124} 
Flow 304: {43 7} {7 58} {58 127} 
Flow 307: {31 62} {62 131} 
Flow 310: {64 65} {65 134} 
Flow 311: {67 66} {66 135} 
Flow 378: {28 31} {31 49} {49 48} {48 117} 
Flow 379: {28 56} {56 125} 
Flow 449: {31 1} {1 70} 
Flow 452: {8 5} {5 74} 
Flow 460: {31 15} {15 84} 
Flow 462: {23 24} {24 18} {18 87} 
Flow 476: {31 51} {51 33} {33 102} 
Flow 479: {31 36} {36 105} 
Flow 480: {37 106} 
Flow 489: {31 46} {46 115} 
Flow 490: {43 47} {47 116} 
Flow 494: {51 120} 
Flow 495: {31 52} {52 121} 
Flow 496: {31 53} {53 122} 
Flow 497: {49 54} {54 123} 
Flow 502: {39 59} {59 128} 
Flow 511: {67 68} {68 137} 
Flow 514: {32 31} {31 4} {4 73} 
Flow 519: {11 80} 
Flow 531: {35 34} {34 103} 
Flow 546: {32 60} 
Flow 549: {32 27} {27 67} {67 136} 
Flow 553: {33 51} {51 31} 
Flow 554: {34 35} 
Flow 556: {36 31} 
Flow 585: {31 63} {63 64} {64 133} 
Flow 633: {41 31} 
Flow 648: {38 30} {30 99} 
Flow 651: {29 38} {38 107} 
Flow 652: {30 39} {39 108} 
Flow 692: {44 43} {43 57} 
Flow 694: {45 31} 
Flow 709: {46 31} {31 60} {60 129} 
Flow 712: {48 49} 
Flow 728: {23 19} {19 88} 
Flow 731: {19 22} {22 91} 
Flow 767: {63 132} 
Flow 773: {50 31} 
Flow 803: {52 31} {31 28} {28 97} 
Flow 823: {53 31} {31 37} {37 57} {57 126} 
Flow 828: {54 49} {49 31} {31 17} {17 20} {20 89} 
Flow 832: {40 39} {39 30} {30 38} {38 29} {29 98} 
Flow 839: {55 49} 
Flow 842: {56 31} {31 32} 
Flow 845: {57 43} {43 8} {8 77} 
Flow 850: {57 37} {37 31} {31 26} {26 95} 
Flow 864: {58 7} {7 43} {43 112} 
Flow 865: {59 39} {39 40} {40 31} 
Flow 871: {60 31} 
Flow 873: {61 42} {42 13} {13 14} {14 29} 
Flow 877: {62 31} {31 43} 
Flow 893: {65 64} {64 63} {63 31} 
Flow 903: {66 67} {67 27} {27 32} {32 101} 
Flow 929: {31 35} {35 104} 
Flow 939: {49 118} 
Flow 940: {27 31} {31 56} 
Flow 947: {68 67} 
Flow 948: {69 67} 
Time taken running everything: 11 seconds
