networks/zoo_138_948/zoo_138_948.sol
<?xml version = "1.0" encoding="UTF-8" standalone="yes"?>
<CPLEXSolution version="1.2">
 <header
   problemName="networks/zoo_138_948/zoo_138_948.lp"
   solutionName="incumbent"
   solutionIndex="-1"
   objectiveValue="91"
   solutionTypeValue="3"
   solutionTypeString="primal"
   solutionStatusValue="101"
   solutionStatusString="integer optimal solution"
   solutionMethodString="mip"
   primalFeasible="1"
   dualFeasible="1"
   MIPNodes="0"
   MIPIterations="12645"
   writeLevel="3"/>
 <quality
   epInt="1.0000000000000001e-05"
   epRHS="9.9999999999999995e-07"
   maxIntInfeas="0"
   maxPrimalInfeas="1.7763568394002505e-15"
   maxX="4"
   maxSlack="10"/>
 <variables>
  <variable name="Y(1,1)" index="0" value="1"/>
  <variable name="Y(2,7)" index="140" value="1"/>
  <variable name="Y(7,27)" index="830" value="1"/>
  <variable name="Y(11,4)" index="1343" value="1"/>
  <variable name="Y(16,23)" index="2032" value="1"/>
  <variable name="Y(26,31)" index="3380" value="1"/>
  <variable name="Y(48,24)" index="6321" value="1"/>
  <variable name="Y(55,10)" index="7245" value="1"/>
  <variable name="Y(57,2)" index="7505" value="1"/>
  <variable name="Y(63,13)" index="8320" value="1"/>
  <variable name="Y(79,42)" index="10493" value="1"/>
  <variable name="Y(81,44)" index="10763" value="1"/>
  <variable name="Y(87,61)" index="11584" value="1"/>
  <variable name="Y(90,69)" index="11994" value="1"/>
  <variable name="Y(91,35)" index="12094" value="1"/>
  <variable name="Y(149,15)" index="19846" value="1"/>
  <variable name="Y(151,16)" index="20115" value="1"/>
  <variable name="Y(153,6)" index="20373" value="1"/>
  <variable name="Y(173,45)" index="23092" value="1"/>
  <variable name="Y(189,40)" index="25231" value="1"/>
  <variable name="Y(229,10)" index="30561" value="1"/>
  <variable name="Y(255,26)" index="34061" value="1"/>
  <variable name="Y(258,17)" index="34454" value="1"/>
  <variable name="Y(271,9)" index="36188" value="1"/>
  <variable name="Y(277,21)" index="37004" value="1"/>
  <variable name="Y(280,25)" index="37410" value="1"/>
  <variable name="Y(293,41)" index="39168" value="1"/>
  <variable name="Y(300,50)" index="40115" value="1"/>
  <variable name="Y(301,55)" index="40254" value="1"/>
  <variable name="Y(304,58)" index="40659" value="1"/>
  <variable name="Y(307,62)" index="41065" value="1"/>
  <variable name="Y(310,65)" index="41470" value="1"/>
  <variable name="Y(311,66)" index="41605" value="1"/>
  <variable name="Y(378,48)" index="50565" value="1"/>
  <variable name="Y(379,56)" index="50707" value="1"/>
  <variable name="Y(449,1)" index="60032" value="1"/>
  <variable name="Y(452,5)" index="60438" value="1"/>
  <variable name="Y(460,15)" index="61520" value="1"/>
  <variable name="Y(462,18)" index="61791" value="1"/>
  <variable name="Y(476,33)" index="63682" value="1"/>
  <variable name="Y(479,36)" index="64087" value="1"/>
  <variable name="Y(480,37)" index="64222" value="1"/>
  <variable name="Y(489,46)" index="65437" value="1"/>
  <variable name="Y(490,47)" index="65572" value="1"/>
  <variable name="Y(494,51)" index="66112" value="1"/>
  <variable name="Y(495,52)" index="66247" value="1"/>
  <variable name="Y(496,53)" index="66382" value="1"/>
  <variable name="Y(497,54)" index="66517" value="1"/>
  <variable name="Y(502,59)" index="67192" value="1"/>
  <variable name="Y(511,68)" index="68407" value="1"/>
  <variable name="Y(514,4)" index="68745" value="1"/>
  <variable name="Y(519,11)" index="69422" value="1"/>
  <variable name="Y(531,34)" index="71053" value="1"/>
  <variable name="Y(546,32)" index="73061" value="1"/>
  <variable name="Y(549,67)" index="73498" value="1"/>
  <variable name="Y(553,51)" index="74018" value="1"/>
  <variable name="Y(554,34)" index="74135" value="1"/>
  <variable name="Y(556,36)" index="74405" value="1"/>
  <variable name="Y(585,64)" index="78319" value="1"/>
  <variable name="Y(633,41)" index="84728" value="1"/>
  <variable name="Y(648,30)" index="86727" value="1"/>
  <variable name="Y(651,38)" index="87137" value="1"/>
  <variable name="Y(652,39)" index="87272" value="1"/>
  <variable name="Y(692,43)" index="92636" value="1"/>
  <variable name="Y(694,45)" index="92906" value="1"/>
  <variable name="Y(709,60)" index="94931" value="1"/>
  <variable name="Y(712,48)" index="95321" value="1"/>
  <variable name="Y(728,19)" index="97436" value="1"/>
  <variable name="Y(731,22)" index="97841" value="1"/>
  <variable name="Y(767,63)" index="102706" value="1"/>
  <variable name="Y(773,50)" index="103497" value="1"/>
  <variable name="Y(803,28)" index="107495" value="1"/>
  <variable name="Y(823,57)" index="110204" value="1"/>
  <variable name="Y(828,20)" index="110837" value="1"/>
  <variable name="Y(832,29)" index="111382" value="1"/>
  <variable name="Y(839,55)" index="112346" value="1"/>
  <variable name="Y(842,31)" index="112724" value="1"/>
  <variable name="Y(845,8)" index="113103" value="1"/>
  <variable name="Y(850,26)" index="113791" value="1"/>
  <variable name="Y(864,43)" index="115684" value="1"/>
  <variable name="Y(865,40)" index="115815" value="1"/>
  <variable name="Y(871,60)" index="116639" value="1"/>
  <variable name="Y(873,14)" index="116861" value="1"/>
  <variable name="Y(877,31)" index="117414" value="1"/>
  <variable name="Y(893,63)" index="119590" value="1"/>
  <variable name="Y(903,32)" index="120899" value="1"/>
  <variable name="Y(929,35)" index="124386" value="1"/>
  <variable name="Y(939,49)" index="125740" value="1"/>
  <variable name="Y(940,31)" index="125856" value="1"/>
  <variable name="Y(947,68)" index="126831" value="1"/>
  <variable name="Y(948,69)" index="126966" value="1"/>
  <variable name="X(1,31,1)" index="127032" value="1"/>
  <variable name="X(1,70,449)" index="128428" value="1"/>
  <variable name="X(2,7,2)" index="128929" value="1"/>
  <variable name="X(2,71,57)" index="129932" value="1"/>
  <variable name="X(3,31,7)" index="130830" value="1"/>
  <variable name="X(4,31,11)" index="131782" value="1"/>
  <variable name="X(4,73,514)" index="133233" value="1"/>
  <variable name="X(5,8,16)" index="133683" value="1"/>
  <variable name="X(5,74,452)" index="135067" value="1"/>
  <variable name="X(6,11,26)" index="135589" value="1"/>
  <variable name="X(6,75,153)" index="136664" value="1"/>
  <variable name="X(7,2,57)" index="137516" value="1"/>
  <variable name="X(7,43,864)" index="139271" value="1"/>
  <variable name="X(7,58,304)" index="139659" value="1"/>
  <variable name="X(7,76,2)" index="140305" value="1"/>
  <variable name="X(8,5,452)" index="141703" value="1"/>
  <variable name="X(8,43,16)" index="142215" value="1"/>
  <variable name="X(8,77,845)" index="143992" value="1"/>
  <variable name="X(9,49,48)" index="144143" value="1"/>
  <variable name="X(9,78,271)" index="145314" value="1"/>
  <variable name="X(10,23,55)" index="146046" value="1"/>
  <variable name="X(10,79,229)" index="147168" value="1"/>
  <variable name="X(11,6,153)" index="148040" value="1"/>
  <variable name="X(11,31,26)" index="148861" value="1"/>
  <variable name="X(11,80,519)" index="150302" value="1"/>
  <variable name="X(12,35,91)" index="150822" value="1"/>
  <variable name="X(13,14,873)" index="152552" value="1"/>
  <variable name="X(13,42,79)" index="152706" value="1"/>
  <variable name="X(13,82,63)" index="153638" value="1"/>
  <variable name="X(14,13,63)" index="154586" value="1"/>
  <variable name="X(14,29,873)" index="156344" value="1"/>
  <variable name="X(15,31,149)" index="156568" value="1"/>
  <variable name="X(15,84,460)" index="157827" value="1"/>
  <variable name="X(16,31,151)" index="158466" value="1"/>
  <variable name="X(17,20,828)" index="160091" value="1"/>
  <variable name="X(17,31,153)" index="160364" value="1"/>
  <variable name="X(17,86,258)" index="161417" value="1"/>
  <variable name="X(18,24,189)" index="162296" value="1"/>
  <variable name="X(18,87,462)" index="163517" value="1"/>
  <variable name="X(19,20,258)" index="164261" value="1"/>
  <variable name="X(19,22,731)" index="165682" value="1"/>
  <variable name="X(19,23,229)" index="166128" value="1"/>
  <variable name="X(19,88,728)" index="167575" value="1"/>
  <variable name="X(20,17,258)" index="168053" value="1"/>
  <variable name="X(20,19,229)" index="168972" value="1"/>
  <variable name="X(20,89,828)" index="170519" value="1"/>
  <variable name="X(21,26,255)" index="170894" value="1"/>
  <variable name="X(21,90,277)" index="171864" value="1"/>
  <variable name="X(22,19,258)" index="172793" value="1"/>
  <variable name="X(22,91,731)" index="174214" value="1"/>
  <variable name="X(23,10,229)" index="174660" value="1"/>
  <variable name="X(23,19,728)" index="176107" value="1"/>
  <variable name="X(23,24,462)" index="176789" value="1"/>
  <variable name="X(23,31,189)" index="177464" value="1"/>
  <variable name="X(23,92,16)" index="178239" value="1"/>
  <variable name="X(24,18,462)" index="179633" value="1"/>
  <variable name="X(24,23,189)" index="180308" value="1"/>
  <variable name="X(24,93,48)" index="181115" value="1"/>
  <variable name="X(25,94,280)" index="182295" value="1"/>
  <variable name="X(26,21,277)" index="183240" value="1"/>
  <variable name="X(26,31,255)" index="184166" value="1"/>
  <variable name="X(26,95,850)" index="185709" value="1"/>
  <variable name="X(27,31,940)" index="186747" value="1"/>
  <variable name="X(27,32,903)" index="187658" value="1"/>
  <variable name="X(27,67,549)" index="188252" value="1"/>
  <variable name="X(27,96,7)" index="188658" value="1"/>
  <variable name="X(28,31,378)" index="189977" value="1"/>
  <variable name="X(28,56,379)" index="190926" value="1"/>
  <variable name="X(28,97,803)" index="192298" value="1"/>
  <variable name="X(29,14,63)" index="192506" value="1"/>
  <variable name="X(29,38,651)" index="194042" value="1"/>
  <variable name="X(29,98,832)" index="195171" value="1"/>
  <variable name="X(30,38,832)" index="196119" value="1"/>
  <variable name="X(30,39,652)" index="196887" value="1"/>
  <variable name="X(30,99,648)" index="197831" value="1"/>
  <variable name="X(31,1,449)" index="198580" value="1"/>
  <variable name="X(31,4,514)" index="199593" value="1"/>
  <variable name="X(31,11,153)" index="200180" value="1"/>
  <variable name="X(31,15,460)" index="201435" value="1"/>
  <variable name="X(31,17,828)" index="202751" value="1"/>
  <variable name="X(31,23,16)" index="202887" value="1"/>
  <variable name="X(31,25,280)" index="204099" value="1"/>
  <variable name="X(31,26,850)" index="205617" value="1"/>
  <variable name="X(31,27,7)" index="205722" value="1"/>
  <variable name="X(31,28,803)" index="207466" value="1"/>
  <variable name="X(31,32,842)" index="208453" value="1"/>
  <variable name="X(31,35,929)" index="209488" value="1"/>
  <variable name="X(31,36,479)" index="209986" value="1"/>
  <variable name="X(31,37,823)" index="211278" value="1"/>
  <variable name="X(31,40,189)" index="211592" value="1"/>
  <variable name="X(31,41,293)" index="212644" value="1"/>
  <variable name="X(31,43,877)" index="214176" value="1"/>
  <variable name="X(31,45,173)" index="214420" value="1"/>
  <variable name="X(31,46,489)" index="215684" value="1"/>
  <variable name="X(31,49,378)" index="216521" value="1"/>
  <variable name="X(31,50,300)" index="217391" value="1"/>
  <variable name="X(31,51,476)" index="218515" value="1"/>
  <variable name="X(31,52,495)" index="219482" value="1"/>
  <variable name="X(31,53,496)" index="220431" value="1"/>
  <variable name="X(31,56,940)" index="221823" value="1"/>
  <variable name="X(31,60,709)" index="222540" value="1"/>
  <variable name="X(31,62,307)" index="223086" value="1"/>
  <variable name="X(31,63,585)" index="224312" value="1"/>
  <variable name="X(31,100,26)" index="224701" value="1"/>
  <variable name="X(32,27,549)" index="226172" value="1"/>
  <variable name="X(32,31,514)" index="227085" value="1"/>
  <variable name="X(32,60,546)" index="228065" value="1"/>
  <variable name="X(32,101,903)" index="229370" value="1"/>
  <variable name="X(33,51,553)" index="229968" value="1"/>
  <variable name="X(33,102,476)" index="230839" value="1"/>
  <variable name="X(34,35,554)" index="231865" value="1"/>
  <variable name="X(34,103,531)" index="232790" value="1"/>
  <variable name="X(35,31,91)" index="233298" value="1"/>
  <variable name="X(35,34,531)" index="234686" value="1"/>
  <variable name="X(35,104,929)" index="236032" value="1"/>
  <variable name="X(36,31,556)" index="236607" value="1"/>
  <variable name="X(36,105,479)" index="237478" value="1"/>
  <variable name="X(37,31,850)" index="238797" value="1"/>
  <variable name="X(37,57,823)" index="239718" value="1"/>
  <variable name="X(37,106,480)" index="240323" value="1"/>
  <variable name="X(38,29,832)" index="241623" value="1"/>
  <variable name="X(38,30,648)" index="242387" value="1"/>
  <variable name="X(38,107,651)" index="243338" value="1"/>
  <variable name="X(39,30,832)" index="244467" value="1"/>
  <variable name="X(39,40,865)" index="245448" value="1"/>
  <variable name="X(39,59,502)" index="246033" value="1"/>
  <variable name="X(39,108,652)" index="247131" value="1"/>
  <variable name="X(40,31,865)" index="248292" value="1"/>
  <variable name="X(40,39,832)" index="249207" value="1"/>
  <variable name="X(40,109,189)" index="249512" value="1"/>
  <variable name="X(41,31,633)" index="250904" value="1"/>
  <variable name="X(41,110,293)" index="251512" value="1"/>
  <variable name="X(42,13,873)" index="253040" value="1"/>
  <variable name="X(42,61,87)" index="253202" value="1"/>
  <variable name="X(42,111,79)" index="254142" value="1"/>
  <variable name="X(43,7,304)" index="255315" value="1"/>
  <variable name="X(43,8,845)" index="256804" value="1"/>
  <variable name="X(43,31,16)" index="256923" value="1"/>
  <variable name="X(43,44,81)" index="257936" value="1"/>
  <variable name="X(43,47,490)" index="259293" value="1"/>
  <variable name="X(43,57,692)" index="260443" value="1"/>
  <variable name="X(43,112,864)" index="261563" value="1"/>
  <variable name="X(44,43,692)" index="262339" value="1"/>
  <variable name="X(44,113,81)" index="262676" value="1"/>
  <variable name="X(45,31,694)" index="264237" value="1"/>
  <variable name="X(45,114,173)" index="264664" value="1"/>
  <variable name="X(46,31,709)" index="266148" value="1"/>
  <variable name="X(46,115,489)" index="266876" value="1"/>
  <variable name="X(47,116,490)" index="267825" value="1"/>
  <variable name="X(48,49,712)" index="268995" value="1"/>
  <variable name="X(48,117,378)" index="269609" value="1"/>
  <variable name="X(49,9,271)" index="270450" value="1"/>
  <variable name="X(49,24,48)" index="271175" value="1"/>
  <variable name="X(49,31,828)" index="272903" value="1"/>
  <variable name="X(49,48,378)" index="273401" value="1"/>
  <variable name="X(49,54,497)" index="274468" value="1"/>
  <variable name="X(49,55,301)" index="275220" value="1"/>
  <variable name="X(49,118,939)" index="276806" value="1"/>
  <variable name="X(50,31,773)" index="277588" value="1"/>
  <variable name="X(50,119,300)" index="278063" value="1"/>
  <variable name="X(51,31,553)" index="279264" value="1"/>
  <variable name="X(51,33,476)" index="280135" value="1"/>
  <variable name="X(51,120,494)" index="281101" value="1"/>
  <variable name="X(52,31,803)" index="282358" value="1"/>
  <variable name="X(52,121,495)" index="282998" value="1"/>
  <variable name="X(53,31,823)" index="284274" value="1"/>
  <variable name="X(53,122,496)" index="284895" value="1"/>
  <variable name="X(54,49,828)" index="286175" value="1"/>
  <variable name="X(54,123,497)" index="286792" value="1"/>
  <variable name="X(55,49,839)" index="288082" value="1"/>
  <variable name="X(55,124,301)" index="288492" value="1"/>
  <variable name="X(56,31,842)" index="289981" value="1"/>
  <variable name="X(56,125,379)" index="290466" value="1"/>
  <variable name="X(57,37,850)" index="291885" value="1"/>
  <variable name="X(57,43,845)" index="292828" value="1"/>
  <variable name="X(57,126,823)" index="293754" value="1"/>
  <variable name="X(58,7,864)" index="294743" value="1"/>
  <variable name="X(58,127,304)" index="295131" value="1"/>
  <variable name="X(59,39,865)" index="296640" value="1"/>
  <variable name="X(59,128,502)" index="297225" value="1"/>
  <variable name="X(60,31,871)" index="298542" value="1"/>
  <variable name="X(60,129,709)" index="299328" value="1"/>
  <variable name="X(61,42,873)" index="300440" value="1"/>
  <variable name="X(61,130,87)" index="300602" value="1"/>
  <variable name="X(62,31,877)" index="302340" value="1"/>
  <variable name="X(62,131,307)" index="302718" value="1"/>
  <variable name="X(63,31,893)" index="304252" value="1"/>
  <variable name="X(63,64,585)" index="304892" value="1"/>
  <variable name="X(63,132,767)" index="306022" value="1"/>
  <variable name="X(64,63,893)" index="307096" value="1"/>
  <variable name="X(64,65,310)" index="307461" value="1"/>
  <variable name="X(64,133,585)" index="308684" value="1"/>
  <variable name="X(65,64,893)" index="309940" value="1"/>
  <variable name="X(65,134,310)" index="310305" value="1"/>
  <variable name="X(66,67,903)" index="311846" value="1"/>
  <variable name="X(66,135,311)" index="312202" value="1"/>
  <variable name="X(67,27,903)" index="313742" value="1"/>
  <variable name="X(67,66,311)" index="314098" value="1"/>
  <variable name="X(67,68,511)" index="315246" value="1"/>
  <variable name="X(67,69,90)" index="315773" value="1"/>
  <variable name="X(67,136,549)" index="317180" value="1"/>
  <variable name="X(68,67,947)" index="318526" value="1"/>
  <variable name="X(68,137,511)" index="319038" value="1"/>
  <variable name="X(69,67,948)" index="320423" value="1"/>
  <variable name="X(69,138,90)" index="320513" value="1"/>
  <variable name="C(2,7)" index="321375" value="1"/>
  <variable name="C(7,31)" index="321394" value="1"/>
  <variable name="C(7,27)" index="321395" value="2"/>
  <variable name="C(16,8)" index="321424" value="1"/>
  <variable name="C(16,43)" index="321425" value="2"/>
  <variable name="C(16,31)" index="321426" value="2.9999999999999996"/>
  <variable name="C(16,23)" index="321427" value="3.9999999999999991"/>
  <variable name="C(26,11)" index="321475" value="1"/>
  <variable name="C(26,31)" index="321476" value="2.0000000000000004"/>
  <variable name="C(48,49)" index="321567" value="1"/>
  <variable name="C(48,24)" index="321568" value="2"/>
  <variable name="C(57,2)" index="321603" value="1"/>
  <variable name="C(63,14)" index="321628" value="1"/>
  <variable name="C(63,13)" index="321629" value="2"/>
  <variable name="C(79,42)" index="321696" value="1"/>
  <variable name="C(81,44)" index="321703" value="1"/>
  <variable name="C(87,61)" index="321731" value="1"/>
  <variable name="C(90,69)" index="321744" value="1"/>
  <variable name="C(91,35)" index="321746" value="1"/>
  <variable name="C(153,31)" index="322175" value="1"/>
  <variable name="C(153,11)" index="322176" value="2"/>
  <variable name="C(153,6)" index="322177" value="3"/>
  <variable name="C(173,45)" index="322262" value="1"/>
  <variable name="C(189,24)" index="322336" value="1"/>
  <variable name="C(189,23)" index="322337" value="2"/>
  <variable name="C(189,31)" index="322338" value="3"/>
  <variable name="C(189,40)" index="322339" value="4"/>
  <variable name="C(229,19)" index="322539" value="1"/>
  <variable name="C(229,23)" index="322540" value="2"/>
  <variable name="C(229,10)" index="322541" value="3"/>
  <variable name="C(255,26)" index="322674" value="1"/>
  <variable name="C(258,19)" index="322690" value="1"/>
  <variable name="C(258,20)" index="322691" value="2"/>
  <variable name="C(258,17)" index="322692" value="3"/>
  <variable name="C(271,9)" index="322747" value="1"/>
  <variable name="C(277,21)" index="322771" value="1"/>
  <variable name="C(280,25)" index="322779" value="1"/>
  <variable name="C(293,41)" index="322828" value="1"/>
  <variable name="C(300,50)" index="322858" value="1"/>
  <variable name="C(301,55)" index="322862" value="1"/>
  <variable name="C(304,7)" index="322873" value="1"/>
  <variable name="C(304,58)" index="322874" value="2"/>
  <variable name="C(307,62)" index="322891" value="1"/>
  <variable name="C(310,65)" index="322903" value="1"/>
  <variable name="C(311,66)" index="322908" value="1"/>
  <variable name="C(378,31)" index="323191" value="1"/>
  <variable name="C(378,49)" index="323192" value="2"/>
  <variable name="C(378,48)" index="323193" value="3"/>
  <variable name="C(379,56)" index="323195" value="1"/>
  <variable name="C(449,1)" index="323605" value="1"/>
  <variable name="C(452,5)" index="323615" value="1"/>
  <variable name="C(460,15)" index="323642" value="1"/>
  <variable name="C(462,24)" index="323647" value="1"/>
  <variable name="C(462,18)" index="323648" value="2"/>
  <variable name="C(476,51)" index="323688" value="1"/>
  <variable name="C(476,33)" index="323689" value="2"/>
  <variable name="C(479,36)" index="323696" value="1"/>
  <variable name="C(489,46)" index="323728" value="1"/>
  <variable name="C(490,47)" index="323731" value="1"/>
  <variable name="C(495,52)" index="323742" value="1"/>
  <variable name="C(496,53)" index="323744" value="1"/>
  <variable name="C(497,54)" index="323747" value="1"/>
  <variable name="C(502,59)" index="323763" value="1"/>
  <variable name="C(511,68)" index="323797" value="1"/>
  <variable name="C(514,31)" index="323808" value="1"/>
  <variable name="C(514,4)" index="323809" value="2"/>
  <variable name="C(531,34)" index="323877" value="1"/>
  <variable name="C(549,27)" index="323954" value="1"/>
  <variable name="C(549,67)" index="323955" value="2"/>
  <variable name="C(553,51)" index="323968" value="1"/>
  <variable name="C(585,63)" index="324140" value="1"/>
  <variable name="C(585,64)" index="324141" value="2"/>
  <variable name="C(648,30)" index="324474" value="1"/>
  <variable name="C(651,38)" index="324498" value="1"/>
  <variable name="C(652,39)" index="324505" value="1"/>
  <variable name="C(692,43)" index="324710" value="1"/>
  <variable name="C(709,31)" index="324769" value="1"/>
  <variable name="C(709,60)" index="324770" value="1.9999999999999998"/>
  <variable name="C(728,19)" index="324844" value="1"/>
  <variable name="C(731,22)" index="324857" value="1"/>
  <variable name="C(803,31)" index="325130" value="1"/>
  <variable name="C(803,28)" index="325131" value="2"/>
  <variable name="C(823,31)" index="325201" value="1"/>
  <variable name="C(823,37)" index="325202" value="1.9999999999999982"/>
  <variable name="C(823,57)" index="325203" value="2.9999999999999982"/>
  <variable name="C(828,49)" index="325222" value="1"/>
  <variable name="C(828,31)" index="325223" value="2"/>
  <variable name="C(828,17)" index="325224" value="3"/>
  <variable name="C(828,20)" index="325225" value="4"/>
  <variable name="C(832,39)" index="325241" value="1"/>
  <variable name="C(832,30)" index="325242" value="2"/>
  <variable name="C(832,38)" index="325243" value="3"/>
  <variable name="C(832,29)" index="325244" value="4"/>
  <variable name="C(842,31)" index="325278" value="1"/>
  <variable name="C(845,43)" index="325287" value="1"/>
  <variable name="C(845,8)" index="325288" value="2"/>
  <variable name="C(850,37)" index="325308" value="1"/>
  <variable name="C(850,31)" index="325309" value="2"/>
  <variable name="C(850,26)" index="325310" value="3"/>
  <variable name="C(864,7)" index="325378" value="1"/>
  <variable name="C(864,43)" index="325379" value="2"/>
  <variable name="C(865,39)" index="325381" value="1"/>
  <variable name="C(865,40)" index="325382" value="2"/>
  <variable name="C(873,42)" index="325425" value="1.0000000000000002"/>
  <variable name="C(873,13)" index="325426" value="2"/>
  <variable name="C(873,14)" index="325427" value="3"/>
  <variable name="C(877,31)" index="325459" value="1"/>
  <variable name="C(893,64)" index="325515" value="1"/>
  <variable name="C(893,63)" index="325516" value="2"/>
  <variable name="C(903,67)" index="325569" value="1"/>
  <variable name="C(903,27)" index="325570" value="1.9999999999999982"/>
  <variable name="C(903,32)" index="325571" value="3"/>
  <variable name="C(929,35)" index="325698" value="1"/>
  <variable name="C(940,31)" index="325754" value="1"/>
 </variables>
</CPLEXSolution>
